2
4
20
1 1.3 1.55 1.75 2.1
35 47 7 17 14 20 11 48 41 28 19 6 48 41 28 18 49 45 36 47 47 41 25 20 18 23 29 6 18 45 48 8 29 46 39 20 10 49 16 6 7 38 34 7 42 41 22 23 34 19 32 15 45 13 31 45 17 12 36 31 32 9 27 39 39 30 11 18 28 29 12 24 49 32 9 18 38 9 32 35 